c ind 33 32 31 30 29 28 27 26 25 24 23 22 21 20 19 18 17 16 15 14 13 12 11 10 9 8 7 6 5 4 3 2  0
c ind 228 227 226 225 224 223 222 221 220 219 218 217 216 215 214 213 212 211 210 209 208 207 206 205 204 203 202 201 200 199 198 197  0
c ind 291 290 289 288 287 286 285 284 283 282 281 280 279 278 277 276 275 274 273 272 271 270 269 268 267 266 265 264 263 262 261 260  0
c ind 385 384 383 382 381 380 379 378 377 376 375 374 373 372 371 370 369 368 367 366 365 364 363 362 361 360 359 358 357 356 355 354  0
c ind 417 416 415 414 413 412 411 410 409 408 407 406 405 404 403 402 401 400 399 398 397 396 395 394 393 392 391 390 389 388 387 386  0
p cnf 723 1273
1 0
-2 0
-3 0
-4 0
-5 0
-6 0
-7 0
-8 0
-9 0
-10 0
-11 0
-12 0
-13 0
-14 0
-15 0
-16 0
-17 0
-18 0
-19 0
-20 0
-21 0
-22 0
-23 0
-24 0
-25 0
-26 0
-27 0
28 0
-29 0
-30 0
-31 0
-32 0
33 0
34 0
35 0
36 0
37 0
38 0
39 0
40 0
41 0
42 0
43 0
44 0
45 0
46 0
47 0
48 0
49 0
50 0
51 0
52 0
53 0
54 0
55 0
56 0
57 0
58 0
59 0
60 0
-61 0
-62 0
-63 0
-64 0
65 0
66 0
67 0
68 0
69 0
70 0
71 0
72 0
73 0
74 0
75 0
76 0
77 0
78 0
79 0
80 0
81 0
82 0
83 0
84 0
85 0
86 0
87 0
88 0
89 0
90 0
-91 0
-92 0
-93 0
-94 0
-95 0
96 0
97 0
98 0
99 0
100 0
101 0
102 0
103 0
104 0
105 0
106 0
107 0
108 0
109 0
110 0
111 0
112 0
113 0
114 0
115 0
116 0
117 0
118 0
119 0
120 0
121 0
122 0
123 0
124 0
125 0
-126 0
-127 0
-128 0
-129 0
-130 0
-131 0
-132 0
-133 0
-134 0
-135 0
-136 0
137 0
138 0
139 0
140 0
141 0
142 0
143 0
144 0
145 0
146 0
147 0
148 0
149 0
150 0
151 0
152 0
153 0
154 0
155 0
156 0
157 0
158 0
159 0
160 0
161 0
162 0
163 0
164 0
165 0
166 0
167 0
168 0
169 0
170 0
171 0
172 0
173 0
174 0
175 0
176 0
177 0
178 0
179 0
180 0
181 0
182 0
183 0
184 0
185 0
186 0
187 0
-188 0
189 0
190 0
-191 0
192 0
-193 0
-194 0
195 0
-196 0
-197 0
-198 0
-199 0
-200 0
-201 0
-202 0
-203 0
-204 0
-205 0
-206 0
-207 0
-208 0
-209 0
-210 0
-211 0
-212 0
-213 0
-214 0
-215 0
-216 0
-217 0
-218 0
-219 0
-220 0
-221 0
-222 0
-223 0
-224 0
-225 0
-226 0
-227 0
-228 0
229 0
230 0
231 0
232 0
233 0
234 0
235 0
236 0
237 0
238 0
239 0
240 0
241 0
242 0
243 0
244 0
245 0
246 0
247 0
248 0
249 0
250 0
251 0
252 0
253 0
254 0
255 0
256 0
257 0
258 0
259 0
-260 0
-261 0
-262 0
-263 0
-264 0
-265 0
-266 0
-267 0
-268 0
-269 0
-270 0
-271 0
-272 0
-273 0
-274 0
-275 0
-276 0
-277 0
-278 0
-279 0
-280 0
-281 0
-282 0
-283 0
-284 0
-285 0
286 0
287 0
288 0
289 0
-290 0
291 0
292 0
293 0
294 0
295 0
296 0
297 0
298 0
299 0
300 0
301 0
302 0
303 0
304 0
305 0
306 0
307 0
308 0
309 0
310 0
311 0
312 0
313 0
314 0
315 0
316 0
317 0
318 0
319 0
320 0
321 0
322 0
323 0
324 0
325 0
326 0
327 0
328 0
329 0
330 0
331 0
332 0
333 0
334 0
335 0
336 0
337 0
338 0
339 0
340 0
341 0
342 0
343 0
344 0
345 0
346 0
347 0
-348 0
-349 0
-350 0
-351 0
-352 0
-353 0
661 0
-354 -660 -448 0
-354 660 448 0
354 -660 448 0
354 660 -448 0
-355 -509 0
-355 -450 510 0
355 -510 0
355 450 509 0
-356 -512 0
-356 -452 513 0
356 -513 0
356 452 512 0
-357 -515 0
-357 -454 516 0
357 -516 0
357 454 515 0
-358 -518 0
-358 -456 519 0
358 -519 0
358 456 518 0
-359 -521 0
-359 -458 522 0
359 -522 0
359 458 521 0
-360 -524 0
-360 -460 525 0
360 -525 0
360 460 524 0
-361 -527 0
-361 -462 528 0
361 -528 0
361 462 527 0
-362 -530 0
-362 -464 531 0
362 -531 0
362 464 530 0
-363 -533 0
-363 -466 534 0
363 -534 0
363 466 533 0
-364 -536 0
-364 -468 537 0
364 -537 0
364 468 536 0
-365 -539 0
-365 -470 540 0
365 -540 0
365 470 539 0
-366 -542 0
-366 -472 543 0
366 -543 0
366 472 542 0
-367 -545 0
-367 -474 546 0
367 -546 0
367 474 545 0
-368 -548 0
-368 -476 549 0
368 -549 0
368 476 548 0
-369 -551 0
-369 -478 552 0
369 -552 0
369 478 551 0
-370 -554 0
-370 -480 555 0
370 -555 0
370 480 554 0
-371 -557 0
-371 -482 558 0
371 -558 0
371 482 557 0
-372 -560 0
-372 -484 561 0
372 -561 0
372 484 560 0
-373 -563 0
-373 -486 564 0
373 -564 0
373 486 563 0
-374 -566 0
-374 -488 567 0
374 -567 0
374 488 566 0
-375 -569 0
-375 -490 570 0
375 -570 0
375 490 569 0
-376 -572 0
-376 -492 573 0
376 -573 0
376 492 572 0
-377 -575 0
-377 -494 576 0
377 -576 0
377 494 575 0
-378 -578 0
-378 -496 579 0
378 -579 0
378 496 578 0
-379 -581 0
-379 -498 582 0
379 -582 0
379 498 581 0
-380 -584 0
-380 -500 585 0
380 -585 0
380 500 584 0
-381 -587 0
-381 -502 588 0
381 -588 0
381 502 587 0
-382 -590 0
-382 -504 591 0
382 -591 0
382 504 590 0
-383 -593 0
-383 -506 594 0
383 -594 0
383 506 593 0
-384 -596 0
-384 -508 597 0
384 -597 0
384 508 596 0
-385 -722 0
-385 -417 599 0
385 -599 0
385 417 722 0
-386 -448 447 0
-386 448 -447 0
386 -448 -447 0
386 448 447 0
-387 -447 0
-387 446 449 0
387 -449 0
387 -446 447 0
-388 -446 0
-388 445 451 0
388 -451 0
388 -445 446 0
-389 -445 0
-389 444 453 0
389 -453 0
389 -444 445 0
-390 -444 0
-390 443 455 0
390 -455 0
390 -443 444 0
-391 -443 0
-391 442 457 0
391 -457 0
391 -442 443 0
-392 -442 0
-392 441 459 0
392 -459 0
392 -441 442 0
-393 -441 0
-393 440 461 0
393 -461 0
393 -440 441 0
-394 -440 0
-394 439 463 0
394 -463 0
394 -439 440 0
-395 -439 0
-395 438 465 0
395 -465 0
395 -438 439 0
-396 -438 0
-396 437 467 0
396 -467 0
396 -437 438 0
-397 -437 0
-397 436 469 0
397 -469 0
397 -436 437 0
-398 -436 0
-398 435 471 0
398 -471 0
398 -435 436 0
-399 -435 0
-399 434 473 0
399 -473 0
399 -434 435 0
-400 -434 0
-400 433 475 0
400 -475 0
400 -433 434 0
-401 -433 0
-401 432 477 0
401 -477 0
401 -432 433 0
-402 -432 0
-402 431 479 0
402 -479 0
402 -431 432 0
-403 -431 0
-403 430 481 0
403 -481 0
403 -430 431 0
-404 -430 0
-404 429 483 0
404 -483 0
404 -429 430 0
-405 -429 0
-405 428 485 0
405 -485 0
405 -428 429 0
-406 -428 0
-406 427 487 0
406 -487 0
406 -427 428 0
-407 -427 0
-407 426 489 0
407 -489 0
407 -426 427 0
-408 -426 0
-408 425 491 0
408 -491 0
408 -425 426 0
-409 -425 0
-409 424 493 0
409 -493 0
409 -424 425 0
-410 -424 0
-410 423 495 0
410 -495 0
410 -423 424 0
-411 -423 0
-411 422 497 0
411 -497 0
411 -422 423 0
-412 -422 0
-412 421 499 0
412 -499 0
412 -421 422 0
-413 -421 0
-413 420 501 0
413 -501 0
413 -420 421 0
-414 -420 0
-414 419 503 0
414 -503 0
414 -419 420 0
-415 -419 0
-415 418 505 0
415 -505 0
415 -418 419 0
-416 -418 0
-416 -417 507 0
416 -507 0
416 417 418 0
-417 -418 0
-417 -722 0
417 -507 0
417 -599 0
-418 -505 0
-418 -508 0
418 -419 0
418 507 508 0
-419 -503 0
-419 -506 0
419 -420 0
419 505 506 0
-420 -501 0
-420 -504 0
420 -421 0
420 503 504 0
-421 -499 0
-421 -502 0
421 -422 0
421 501 502 0
-422 -497 0
-422 -500 0
422 -423 0
422 499 500 0
-423 -495 0
-423 -498 0
423 -424 0
423 497 498 0
-424 -493 0
-424 -496 0
424 -425 0
424 495 496 0
-425 -491 0
-425 -494 0
425 -426 0
425 493 494 0
-426 -489 0
-426 -492 0
426 -427 0
426 491 492 0
-427 -487 0
-427 -490 0
427 -428 0
427 489 490 0
-428 -485 0
-428 -488 0
428 -429 0
428 487 488 0
-429 -483 0
-429 -486 0
429 -430 0
429 485 486 0
-430 -481 0
-430 -484 0
430 -431 0
430 483 484 0
-431 -479 0
-431 -482 0
431 -432 0
431 481 482 0
-432 -477 0
-432 -480 0
432 -433 0
432 479 480 0
-433 -475 0
-433 -478 0
433 -434 0
433 477 478 0
-434 -473 0
-434 -476 0
434 -435 0
434 475 476 0
-435 -471 0
-435 -474 0
435 -436 0
435 473 474 0
-436 -469 0
-436 -472 0
436 -437 0
436 471 472 0
-437 -467 0
-437 -470 0
437 -438 0
437 469 470 0
-438 -465 0
-438 -468 0
438 -439 0
438 467 468 0
-439 -463 0
-439 -466 0
439 -440 0
439 465 466 0
-440 -461 0
-440 -464 0
440 -441 0
440 463 464 0
-441 -459 0
-441 -462 0
441 -442 0
441 461 462 0
-442 -457 0
-442 -460 0
442 -443 0
442 459 460 0
-443 -455 0
-443 -458 0
443 -444 0
443 457 458 0
-444 -453 0
-444 -456 0
444 -445 0
444 455 456 0
-445 -451 0
-445 -454 0
445 -446 0
445 453 454 0
-446 -449 0
-446 -452 0
446 -447 0
446 451 452 0
-447 -450 0
447 449 450 0
-449 -450 0
-450 -509 0
450 -510 0
-451 -452 0
-452 -512 0
452 -513 0
-453 -454 0
-454 -515 0
454 -516 0
-455 -456 0
-456 -518 0
456 -519 0
-457 -458 0
-458 -521 0
458 -522 0
-459 -460 0
-460 -524 0
460 -525 0
-461 -462 0
-462 -527 0
462 -528 0
-463 -464 0
-464 -530 0
464 -531 0
-465 -466 0
-466 -533 0
466 -534 0
-467 -468 0
-468 -536 0
468 -537 0
-469 -470 0
-470 -539 0
470 -540 0
-471 -472 0
-472 -542 0
472 -543 0
-473 -474 0
-474 -545 0
474 -546 0
-475 -476 0
-476 -548 0
476 -549 0
-477 -478 0
-478 -551 0
478 -552 0
-479 -480 0
-480 -554 0
480 -555 0
-481 -482 0
-482 -557 0
482 -558 0
-483 -484 0
-484 -560 0
484 -561 0
-485 -486 0
-486 -563 0
486 -564 0
-487 -488 0
-488 -566 0
488 -567 0
-489 -490 0
-490 -569 0
490 -570 0
-491 -492 0
-492 -572 0
492 -573 0
-493 -494 0
-494 -575 0
494 -576 0
-495 -496 0
-496 -578 0
496 -579 0
-497 -498 0
-498 -581 0
498 -582 0
-499 -500 0
-500 -584 0
500 -585 0
-501 -502 0
-502 -587 0
502 -588 0
-503 -504 0
-504 -590 0
504 -591 0
-505 -506 0
-506 -593 0
506 -594 0
-507 -508 0
-508 -596 0
508 -597 0
-509 -511 0
509 510 511 0
-510 -511 0
-510 -659 0
510 658 659 0
-511 -662 0
-511 657 658 0
511 -658 0
511 -657 662 0
-512 -514 0
512 513 514 0
-513 -514 0
-513 -657 0
513 656 657 0
-514 -664 0
-514 655 656 0
514 -656 0
514 -655 664 0
-515 -517 0
515 516 517 0
-516 -517 0
-516 -655 0
516 654 655 0
-517 -666 0
-517 653 654 0
517 -654 0
517 -653 666 0
-518 -520 0
518 519 520 0
-519 -520 0
-519 -653 0
519 652 653 0
-520 -668 0
-520 651 652 0
520 -652 0
520 -651 668 0
-521 -523 0
521 522 523 0
-522 -523 0
-522 -651 0
522 650 651 0
-523 -670 0
-523 649 650 0
523 -650 0
523 -649 670 0
-524 -526 0
524 525 526 0
-525 -526 0
-525 -649 0
525 648 649 0
-526 -672 0
-526 647 648 0
526 -648 0
526 -647 672 0
-527 -529 0
527 528 529 0
-528 -529 0
-528 -647 0
528 646 647 0
-529 -674 0
-529 645 646 0
529 -646 0
529 -645 674 0
-530 -532 0
530 531 532 0
-531 -532 0
-531 -645 0
531 644 645 0
-532 -676 0
-532 643 644 0
532 -644 0
532 -643 676 0
-533 -535 0
533 534 535 0
-534 -535 0
-534 -643 0
534 642 643 0
-535 -678 0
-535 641 642 0
535 -642 0
535 -641 678 0
-536 -538 0
536 537 538 0
-537 -538 0
-537 -641 0
537 640 641 0
-538 -680 0
-538 639 640 0
538 -640 0
538 -639 680 0
-539 -541 0
539 540 541 0
-540 -541 0
-540 -639 0
540 638 639 0
-541 -682 0
-541 637 638 0
541 -638 0
541 -637 682 0
-542 -544 0
542 543 544 0
-543 -544 0
-543 -637 0
543 636 637 0
-544 -684 0
-544 635 636 0
544 -636 0
544 -635 684 0
-545 -547 0
545 546 547 0
-546 -547 0
-546 -635 0
546 634 635 0
-547 -686 0
-547 633 634 0
547 -634 0
547 -633 686 0
-548 -550 0
548 549 550 0
-549 -550 0
-549 -633 0
549 632 633 0
-550 -688 0
-550 631 632 0
550 -632 0
550 -631 688 0
-551 -553 0
551 552 553 0
-552 -553 0
-552 -631 0
552 630 631 0
-553 -690 0
-553 629 630 0
553 -630 0
553 -629 690 0
-554 -556 0
554 555 556 0
-555 -556 0
-555 -629 0
555 628 629 0
-556 -692 0
-556 627 628 0
556 -628 0
556 -627 692 0
-557 -559 0
557 558 559 0
-558 -559 0
-558 -627 0
558 626 627 0
-559 -694 0
-559 625 626 0
559 -626 0
559 -625 694 0
-560 -562 0
560 561 562 0
-561 -562 0
-561 -625 0
561 624 625 0
-562 -696 0
-562 623 624 0
562 -624 0
562 -623 696 0
-563 -565 0
563 564 565 0
-564 -565 0
-564 -623 0
564 622 623 0
-565 -698 0
-565 621 622 0
565 -622 0
565 -621 698 0
-566 -568 0
566 567 568 0
-567 -568 0
-567 -621 0
567 620 621 0
-568 -700 0
-568 619 620 0
568 -620 0
568 -619 700 0
-569 -571 0
569 570 571 0
-570 -571 0
-570 -619 0
570 618 619 0
-571 -702 0
-571 617 618 0
571 -618 0
571 -617 702 0
-572 -574 0
572 573 574 0
-573 -574 0
-573 -617 0
573 616 617 0
-574 -704 0
-574 615 616 0
574 -616 0
574 -615 704 0
-575 -577 0
575 576 577 0
-576 -577 0
-576 -615 0
576 614 615 0
-577 -706 0
-577 613 614 0
577 -614 0
577 -613 706 0
-578 -580 0
578 579 580 0
-579 -580 0
-579 -613 0
579 612 613 0
-580 -708 0
-580 611 612 0
580 -612 0
580 -611 708 0
-581 -583 0
581 582 583 0
-582 -583 0
-582 -611 0
582 610 611 0
-583 -710 0
-583 609 610 0
583 -610 0
583 -609 710 0
-584 -586 0
584 585 586 0
-585 -586 0
-585 -609 0
585 608 609 0
-586 -712 0
-586 607 608 0
586 -608 0
586 -607 712 0
-587 -589 0
587 588 589 0
-588 -589 0
-588 -607 0
588 606 607 0
-589 -714 0
-589 605 606 0
589 -606 0
589 -605 714 0
-590 -592 0
590 591 592 0
-591 -592 0
-591 -605 0
591 604 605 0
-592 -716 0
-592 603 604 0
592 -604 0
592 -603 716 0
-593 -595 0
593 594 595 0
-594 -595 0
-594 -603 0
594 602 603 0
-595 -718 0
-595 601 602 0
595 -602 0
595 -601 718 0
-596 -598 0
596 597 598 0
-597 -598 0
-597 -601 0
597 600 601 0
-598 -720 0
-598 -599 600 0
598 -600 0
598 599 720 0
-599 -720 0
-599 -723 0
599 -600 0
599 722 723 0
-600 -601 0
-600 -721 0
600 720 721 0
-601 -602 0
601 -718 0
-602 -603 0
-602 -719 0
602 718 719 0
-603 -604 0
603 -716 0
-604 -605 0
-604 -717 0
604 716 717 0
-605 -606 0
605 -714 0
-606 -607 0
-606 -715 0
606 714 715 0
-607 -608 0
607 -712 0
-608 -609 0
-608 -713 0
608 712 713 0
-609 -610 0
609 -710 0
-610 -611 0
-610 -711 0
610 710 711 0
-611 -612 0
611 -708 0
-612 -613 0
-612 -709 0
612 708 709 0
-613 -614 0
613 -706 0
-614 -615 0
-614 -707 0
614 706 707 0
-615 -616 0
615 -704 0
-616 -617 0
-616 -705 0
616 704 705 0
-617 -618 0
617 -702 0
-618 -619 0
-618 -703 0
618 702 703 0
-619 -620 0
619 -700 0
-620 -621 0
-620 -701 0
620 700 701 0
-621 -622 0
621 -698 0
-622 -623 0
-622 -699 0
622 698 699 0
-623 -624 0
623 -696 0
-624 -625 0
-624 -697 0
624 696 697 0
-625 -626 0
625 -694 0
-626 -627 0
-626 -695 0
626 694 695 0
-627 -628 0
627 -692 0
-628 -629 0
-628 -693 0
628 692 693 0
-629 -630 0
629 -690 0
-630 -631 0
-630 -691 0
630 690 691 0
-631 -632 0
631 -688 0
-632 -633 0
-632 -689 0
632 688 689 0
-633 -634 0
633 -686 0
-634 -635 0
-634 -687 0
634 686 687 0
-635 -636 0
635 -684 0
-636 -637 0
-636 -685 0
636 684 685 0
-637 -638 0
637 -682 0
-638 -639 0
-638 -683 0
638 682 683 0
-639 -640 0
639 -680 0
-640 -641 0
-640 -681 0
640 680 681 0
-641 -642 0
641 -678 0
-642 -643 0
-642 -679 0
642 678 679 0
-643 -644 0
643 -676 0
-644 -645 0
-644 -677 0
644 676 677 0
-645 -646 0
645 -674 0
-646 -647 0
-646 -675 0
646 674 675 0
-647 -648 0
647 -672 0
-648 -649 0
-648 -673 0
648 672 673 0
-649 -650 0
649 -670 0
-650 -651 0
-650 -671 0
650 670 671 0
-651 -652 0
651 -668 0
-652 -653 0
-652 -669 0
652 668 669 0
-653 -654 0
653 -666 0
-654 -655 0
-654 -667 0
654 666 667 0
-655 -656 0
655 -664 0
-656 -657 0
-656 -665 0
656 664 665 0
-657 -658 0
657 -662 0
-658 -659 0
-658 -663 0
658 662 663 0
-659 660 0
659 -660 0
-662 -663 0
-664 -665 0
-666 -667 0
-668 -669 0
-670 -671 0
-672 -673 0
-674 -675 0
-676 -677 0
-678 -679 0
-680 -681 0
-682 -683 0
-684 -685 0
-686 -687 0
-688 -689 0
-690 -691 0
-692 -693 0
-694 -695 0
-696 -697 0
-698 -699 0
-700 -701 0
-702 -703 0
-704 -705 0
-706 -707 0
-708 -709 0
-710 -711 0
-712 -713 0
-714 -715 0
-716 -717 0
-718 -719 0
-720 -721 0
-722 -723 0
